\ LP format - for model browsing. Use MPS format to capture full model detail.
Minimize
  x[S,1] + x[S,2] + x[S,3] + x[S,4] + x[S,5] + x[S,6] + x[S,7] + x[S,8]
   + x[S,9] + x[S,10] + x[S,11] + x[S,12] + x[S,13] + x[S,14] + x[S,15]
   + x[S,16] + x[S,17] + x[S,18] + x[S,19] + x[S,20] + x[S,21] + x[S,22]
   + x[S,23] + x[S,24] + x[S,25] + x[S,26] + x[S,27] + x[S,28] + x[S,29]
   + x[S,30] + x[S,31] + x[S,32] + x[S,33] + x[S,34] + x[S,35] + x[S,36]
   + x[B,1] + x[B,2] + x[B,3] + x[B,4] + x[B,5] + x[B,6] + x[B,7] + x[B,8]
   + x[B,9] + x[B,10] + x[B,11] + x[B,12] + x[B,13] + x[B,14] + x[B,15]
   + x[B,16] + x[B,17] + x[B,18] + x[B,19] + x[B,20] + x[B,21] + x[B,22]
   + x[B,23] + x[B,24] + x[B,25] + x[B,26] + x[B,27] + x[B,28] + x[B,29]
   + x[B,30] + x[B,31] + x[B,32] + x[B,33] + x[B,34] + x[B,35] + x[B,36]
   + x[M,1] + x[M,2] + x[M,3] + x[M,4] + x[M,5] + x[M,6] + x[M,7] + x[M,8]
   + x[M,9] + x[M,10] + x[M,11] + x[M,12] + x[M,13] + x[M,14] + x[M,15]
   + x[M,16] + x[M,17] + x[M,18] + x[M,19] + x[M,20] + x[M,21] + x[M,22]
   + x[M,23] + x[M,24] + x[M,25] + x[M,26] + x[M,27] + x[M,28] + x[M,29]
   + x[M,30] + x[M,31] + x[M,32] + x[M,33] + x[M,34] + x[M,35] + x[M,36]
Subject To
 R0: 1.005 x[S,1] + y[S,1] = 20100
 R1: 1.005 x[S,2] - 1.005 y[S,1] + y[S,2] = 0
 R2: 1.005 x[S,3] - 1.005 y[S,2] + y[S,3] = 0
 R3: 1.005 x[S,4] - 1.005 y[S,3] + y[S,4] = 0
 R4: 1.005 x[S,5] - 1.005 y[S,4] + y[S,5] = 0
 R5: 1.005 x[S,6] - 1.005 y[S,5] + y[S,6] = 0
 R6: 1.005 x[S,7] - 1.005 y[S,6] + y[S,7] = 0
 R7: 1.005 x[S,8] - 1.005 y[S,7] + y[S,8] = 0
 R8: 1.005 x[S,9] - 1.005 y[S,8] + y[S,9] = 0
 R9: 1.005 x[S,10] - 1.005 y[S,9] + y[S,10] = 0
 R10: 1.005 x[S,11] - 1.005 y[S,10] + y[S,11] = 0
 R11: 1.005 x[S,12] - 1.005 y[S,11] + y[S,12] = 0
 R12: 1.005 x[S,13] - 1.005 y[S,12] + y[S,13] = 0
 R13: 1.005 x[S,14] - 1.005 y[S,13] + y[S,14] = 0
 R14: 1.005 x[S,15] - 1.005 y[S,14] + y[S,15] = 0
 R15: 1.005 x[S,16] - 1.005 y[S,15] + y[S,16] = 0
 R16: 1.005 x[S,17] - 1.005 y[S,16] + y[S,17] = 0
 R17: 1.005 x[S,18] - 1.005 y[S,17] + y[S,18] = 0
 R18: 1.005 x[S,19] - 1.005 y[S,18] + y[S,19] = 0
 R19: 1.005 x[S,20] - 1.005 y[S,19] + y[S,20] = 0
 R20: 1.005 x[S,21] - 1.005 y[S,20] + y[S,21] = 0
 R21: 1.005 x[S,22] - 1.005 y[S,21] + y[S,22] = 0
 R22: 1.005 x[S,23] - 1.005 y[S,22] + y[S,23] = 0
 R23: 1.005 x[S,24] - 1.005 y[S,23] + y[S,24] = 0
 R24: 1.005 x[S,25] - 1.005 y[S,24] + y[S,25] = 0
 R25: 1.005 x[S,26] - 1.005 y[S,25] + y[S,26] = 0
 R26: 1.005 x[S,27] - 1.005 y[S,26] + y[S,27] = 0
 R27: 1.005 x[S,28] - 1.005 y[S,27] + y[S,28] = 0
 R28: 1.005 x[S,29] - 1.005 y[S,28] + y[S,29] = 0
 R29: 1.005 x[S,30] - 1.005 y[S,29] + y[S,30] = 0
 R30: 1.005 x[S,31] - 1.005 y[S,30] + y[S,31] = 0
 R31: 1.005 x[S,32] - 1.005 y[S,31] + y[S,32] = 0
 R32: 1.005 x[S,33] - 1.005 y[S,32] + y[S,33] = 0
 R33: 1.005 x[S,34] - 1.005 y[S,33] + y[S,34] = 0
 R34: 1.005 x[S,35] - 1.005 y[S,34] + y[S,35] = 0
 R35: 1.005 x[S,36] - 1.005 y[S,35] + y[S,36] = 0
 R36: 1.01 x[B,1] + y[B,1] = 50500
 R37: 1.01 x[B,2] - 1.01 y[B,1] + y[B,2] = 0
 R38: 1.01 x[B,3] - 1.01 y[B,2] + y[B,3] = 0
 R39: 1.01 x[B,4] - 1.01 y[B,3] + y[B,4] = 0
 R40: 1.01 x[B,5] - 1.01 y[B,4] + y[B,5] = 0
 R41: 1.01 x[B,6] - 1.01 y[B,5] + y[B,6] = 0
 R42: 1.01 x[B,7] - 1.01 y[B,6] + y[B,7] = 0
 R43: 1.01 x[B,8] - 1.01 y[B,7] + y[B,8] = 0
 R44: 1.01 x[B,9] - 1.01 y[B,8] + y[B,9] = 0
 R45: 1.01 x[B,10] - 1.01 y[B,9] + y[B,10] = 0
 R46: 1.01 x[B,11] - 1.01 y[B,10] + y[B,11] = 0
 R47: 1.01 x[B,12] - 1.01 y[B,11] + y[B,12] = 0
 R48: 1.01 x[B,13] - 1.01 y[B,12] + y[B,13] = 0
 R49: 1.01 x[B,14] - 1.01 y[B,13] + y[B,14] = 0
 R50: 1.01 x[B,15] - 1.01 y[B,14] + y[B,15] = 0
 R51: 1.01 x[B,16] - 1.01 y[B,15] + y[B,16] = 0
 R52: 1.01 x[B,17] - 1.01 y[B,16] + y[B,17] = 0
 R53: 1.01 x[B,18] - 1.01 y[B,17] + y[B,18] = 0
 R54: 1.01 x[B,19] - 1.01 y[B,18] + y[B,19] = 0
 R55: 1.01 x[B,20] - 1.01 y[B,19] + y[B,20] = 0
 R56: 1.01 x[B,21] - 1.01 y[B,20] + y[B,21] = 0
 R57: 1.01 x[B,22] - 1.01 y[B,21] + y[B,22] = 0
 R58: 1.01 x[B,23] - 1.01 y[B,22] + y[B,23] = 0
 R59: 1.01 x[B,24] - 1.01 y[B,23] + y[B,24] = 0
 R60: 1.01 x[B,25] - 1.01 y[B,24] + y[B,25] = 0
 R61: 1.01 x[B,26] - 1.01 y[B,25] + y[B,26] = 0
 R62: 1.01 x[B,27] - 1.01 y[B,26] + y[B,27] = 0
 R63: 1.01 x[B,28] - 1.01 y[B,27] + y[B,28] = 0
 R64: 1.01 x[B,29] - 1.01 y[B,28] + y[B,29] = 0
 R65: 1.01 x[B,30] - 1.01 y[B,29] + y[B,30] = 0
 R66: 1.01 x[B,31] - 1.01 y[B,30] + y[B,31] = 0
 R67: 1.01 x[B,32] - 1.01 y[B,31] + y[B,32] = 0
 R68: 1.01 x[B,33] - 1.01 y[B,32] + y[B,33] = 0
 R69: 1.01 x[B,34] - 1.01 y[B,33] + y[B,34] = 0
 R70: 1.01 x[B,35] - 1.01 y[B,34] + y[B,35] = 0
 R71: 1.01 x[B,36] - 1.01 y[B,35] + y[B,36] = 0
 R72: 1.015 x[M,1] + y[M,1] = 40600
 R73: 1.015 x[M,2] - 1.015 y[M,1] + y[M,2] = 0
 R74: 1.015 x[M,3] - 1.015 y[M,2] + y[M,3] = 0
 R75: 1.015 x[M,4] - 1.015 y[M,3] + y[M,4] = 0
 R76: 1.015 x[M,5] - 1.015 y[M,4] + y[M,5] = 0
 R77: 1.015 x[M,6] - 1.015 y[M,5] + y[M,6] = 0
 R78: 1.015 x[M,7] - 1.015 y[M,6] + y[M,7] = 0
 R79: 1.015 x[M,8] - 1.015 y[M,7] + y[M,8] = 0
 R80: 1.015 x[M,9] - 1.015 y[M,8] + y[M,9] = 0
 R81: 1.015 x[M,10] - 1.015 y[M,9] + y[M,10] = 0
 R82: 1.015 x[M,11] - 1.015 y[M,10] + y[M,11] = 0
 R83: 1.015 x[M,12] - 1.015 y[M,11] + y[M,12] = 0
 R84: 1.015 x[M,13] - 1.015 y[M,12] + y[M,13] = 0
 R85: 1.015 x[M,14] - 1.015 y[M,13] + y[M,14] = 0
 R86: 1.015 x[M,15] - 1.015 y[M,14] + y[M,15] = 0
 R87: 1.015 x[M,16] - 1.015 y[M,15] + y[M,16] = 0
 R88: 1.015 x[M,17] - 1.015 y[M,16] + y[M,17] = 0
 R89: 1.015 x[M,18] - 1.015 y[M,17] + y[M,18] = 0
 R90: 1.015 x[M,19] - 1.015 y[M,18] + y[M,19] = 0
 R91: 1.015 x[M,20] - 1.015 y[M,19] + y[M,20] = 0
 R92: 1.015 x[M,21] - 1.015 y[M,20] + y[M,21] = 0
 R93: 1.015 x[M,22] - 1.015 y[M,21] + y[M,22] = 0
 R94: 1.015 x[M,23] - 1.015 y[M,22] + y[M,23] = 0
 R95: 1.015 x[M,24] - 1.015 y[M,23] + y[M,24] = 0
 R96: 1.015 x[M,25] - 1.015 y[M,24] + y[M,25] = 0
 R97: 1.015 x[M,26] - 1.015 y[M,25] + y[M,26] = 0
 R98: 1.015 x[M,27] - 1.015 y[M,26] + y[M,27] = 0
 R99: 1.015 x[M,28] - 1.015 y[M,27] + y[M,28] = 0
 R100: 1.015 x[M,29] - 1.015 y[M,28] + y[M,29] = 0
 R101: 1.015 x[M,30] - 1.015 y[M,29] + y[M,30] = 0
 R102: 1.015 x[M,31] - 1.015 y[M,30] + y[M,31] = 0
 R103: 1.015 x[M,32] - 1.015 y[M,31] + y[M,32] = 0
 R104: 1.015 x[M,33] - 1.015 y[M,32] + y[M,33] = 0
 R105: 1.015 x[M,34] - 1.015 y[M,33] + y[M,34] = 0
 R106: 1.015 x[M,35] - 1.015 y[M,34] + y[M,35] = 0
 R107: 1.015 x[M,36] - 1.015 y[M,35] + y[M,36] = 0
 R108: x[S,1] + x[B,1] + x[M,1] <= 5000
 R109: x[S,2] + x[B,2] + x[M,2] <= 5000
 R110: x[S,3] + x[B,3] + x[M,3] <= 5000
 R111: x[S,4] + x[B,4] + x[M,4] <= 5000
 R112: x[S,5] + x[B,5] + x[M,5] <= 5000
 R113: x[S,6] + x[B,6] + x[M,6] <= 5000
 R114: x[S,7] + x[B,7] + x[M,7] <= 5000
 R115: x[S,8] + x[B,8] + x[M,8] <= 5000
 R116: x[S,9] + x[B,9] + x[M,9] <= 5000
 R117: x[S,10] + x[B,10] + x[M,10] <= 5000
 R118: x[S,11] + x[B,11] + x[M,11] <= 5000
 R119: x[S,12] + x[B,12] + x[M,12] <= 5000
 R120: x[S,13] + x[B,13] + x[M,13] <= 5000
 R121: x[S,14] + x[B,14] + x[M,14] <= 5000
 R122: x[S,15] + x[B,15] + x[M,15] <= 5000
 R123: x[S,16] + x[B,16] + x[M,16] <= 5000
 R124: x[S,17] + x[B,17] + x[M,17] <= 5000
 R125: x[S,18] + x[B,18] + x[M,18] <= 5000
 R126: x[S,19] + x[B,19] + x[M,19] <= 5000
 R127: x[S,20] + x[B,20] + x[M,20] <= 5000
 R128: x[S,21] + x[B,21] + x[M,21] <= 5000
 R129: x[S,22] + x[B,22] + x[M,22] <= 5000
 R130: x[S,23] + x[B,23] + x[M,23] <= 5000
 R131: x[S,24] + x[B,24] + x[M,24] <= 5000
 R132: x[S,25] + x[B,25] + x[M,25] <= 5000
 R133: x[S,26] + x[B,26] + x[M,26] <= 5000
 R134: x[S,27] + x[B,27] + x[M,27] <= 5000
 R135: x[S,28] + x[B,28] + x[M,28] <= 5000
 R136: x[S,29] + x[B,29] + x[M,29] <= 5000
 R137: x[S,30] + x[B,30] + x[M,30] <= 5000
 R138: x[S,31] + x[B,31] + x[M,31] <= 5000
 R139: x[S,32] + x[B,32] + x[M,32] <= 5000
 R140: x[S,33] + x[B,33] + x[M,33] <= 5000
 R141: x[S,34] + x[B,34] + x[M,34] <= 5000
 R142: x[S,35] + x[B,35] + x[M,35] <= 5000
 R143: x[S,36] + x[B,36] + x[M,36] <= 5000
 R144: y[S,36] = 0
 R145: y[B,36] = 0
 R146: y[M,36] = 0
 Non-negativity: x[S,1] >= 0
 Non-negativity: x[S,2] >= 0
 Non-negativity: x[S,3] >= 0
 Non-negativity: x[S,4] >= 0
 Non-negativity: x[S,5] >= 0
 Non-negativity: x[S,6] >= 0
 Non-negativity: x[S,7] >= 0
 Non-negativity: x[S,8] >= 0
 Non-negativity: x[S,9] >= 0
 Non-negativity: x[S,10] >= 0
 Non-negativity: x[S,11] >= 0
 Non-negativity: x[S,12] >= 0
 Non-negativity: x[S,13] >= 0
 Non-negativity: x[S,14] >= 0
 Non-negativity: x[S,15] >= 0
 Non-negativity: x[S,16] >= 0
 Non-negativity: x[S,17] >= 0
 Non-negativity: x[S,18] >= 0
 Non-negativity: x[S,19] >= 0
 Non-negativity: x[S,20] >= 0
 Non-negativity: x[S,21] >= 0
 Non-negativity: x[S,22] >= 0
 Non-negativity: x[S,23] >= 0
 Non-negativity: x[S,24] >= 0
 Non-negativity: x[S,25] >= 0
 Non-negativity: x[S,26] >= 0
 Non-negativity: x[S,27] >= 0
 Non-negativity: x[S,28] >= 0
 Non-negativity: x[S,29] >= 0
 Non-negativity: x[S,30] >= 0
 Non-negativity: x[S,31] >= 0
 Non-negativity: x[S,32] >= 0
 Non-negativity: x[S,33] >= 0
 Non-negativity: x[S,34] >= 0
 Non-negativity: x[S,35] >= 0
 Non-negativity: x[S,36] >= 0
 Non-negativity: x[B,1] >= 0
 Non-negativity: x[B,2] >= 0
 Non-negativity: x[B,3] >= 0
 Non-negativity: x[B,4] >= 0
 Non-negativity: x[B,5] >= 0
 Non-negativity: x[B,6] >= 0
 Non-negativity: x[B,7] >= 0
 Non-negativity: x[B,8] >= 0
 Non-negativity: x[B,9] >= 0
 Non-negativity: x[B,10] >= 0
 Non-negativity: x[B,11] >= 0
 Non-negativity: x[B,12] >= 0
 Non-negativity: x[B,13] >= 0
 Non-negativity: x[B,14] >= 0
 Non-negativity: x[B,15] >= 0
 Non-negativity: x[B,16] >= 0
 Non-negativity: x[B,17] >= 0
 Non-negativity: x[B,18] >= 0
 Non-negativity: x[B,19] >= 0
 Non-negativity: x[B,20] >= 0
 Non-negativity: x[B,21] >= 0
 Non-negativity: x[B,22] >= 0
 Non-negativity: x[B,23] >= 0
 Non-negativity: x[B,24] >= 0
 Non-negativity: x[B,25] >= 0
 Non-negativity: x[B,26] >= 0
 Non-negativity: x[B,27] >= 0
 Non-negativity: x[B,28] >= 0
 Non-negativity: x[B,29] >= 0
 Non-negativity: x[B,30] >= 0
 Non-negativity: x[B,31] >= 0
 Non-negativity: x[B,32] >= 0
 Non-negativity: x[B,33] >= 0
 Non-negativity: x[B,34] >= 0
 Non-negativity: x[B,35] >= 0
 Non-negativity: x[B,36] >= 0
 Non-negativity: x[M,1] >= 0
 Non-negativity: x[M,2] >= 0
 Non-negativity: x[M,3] >= 0
 Non-negativity: x[M,4] >= 0
 Non-negativity: x[M,5] >= 0
 Non-negativity: x[M,6] >= 0
 Non-negativity: x[M,7] >= 0
 Non-negativity: x[M,8] >= 0
 Non-negativity: x[M,9] >= 0
 Non-negativity: x[M,10] >= 0
 Non-negativity: x[M,11] >= 0
 Non-negativity: x[M,12] >= 0
 Non-negativity: x[M,13] >= 0
 Non-negativity: x[M,14] >= 0
 Non-negativity: x[M,15] >= 0
 Non-negativity: x[M,16] >= 0
 Non-negativity: x[M,17] >= 0
 Non-negativity: x[M,18] >= 0
 Non-negativity: x[M,19] >= 0
 Non-negativity: x[M,20] >= 0
 Non-negativity: x[M,21] >= 0
 Non-negativity: x[M,22] >= 0
 Non-negativity: x[M,23] >= 0
 Non-negativity: x[M,24] >= 0
 Non-negativity: x[M,25] >= 0
 Non-negativity: x[M,26] >= 0
 Non-negativity: x[M,27] >= 0
 Non-negativity: x[M,28] >= 0
 Non-negativity: x[M,29] >= 0
 Non-negativity: x[M,30] >= 0
 Non-negativity: x[M,31] >= 0
 Non-negativity: x[M,32] >= 0
 Non-negativity: x[M,33] >= 0
 Non-negativity: x[M,34] >= 0
 Non-negativity: x[M,35] >= 0
 Non-negativity: x[M,36] >= 0
Bounds
End
